NAME          
ROWS
 N  OBJ
 L  c1
 L  c2
COLUMNS
    MARKER    'MARKER'                 'INTORG'
    x[1]      c1        715
    x[1]      c2        19
    x[1]      OBJ       -682
    x[2]      c1        350
    x[2]      c2        200
    x[2]      OBJ       -240
    x[3]      c1        546
    x[3]      c2        471
    x[3]      OBJ       -38
    x[4]      c1        394
    x[4]      c2        196
    x[4]      OBJ       -375
    x[5]      c1        807
    x[5]      c2        990
    x[5]      OBJ       -801
    x[6]      c1        702
    x[6]      c2        348
    x[6]      OBJ       -796
    x[7]      c1        504
    x[7]      c2        174
    x[7]      OBJ       -220
    x[8]      c1        360
    x[8]      c2        370
    x[8]      OBJ       -284
    x[9]      c1        857
    x[9]      c2        679
    x[9]      OBJ       -165
    x[10]     c1        875
    x[10]     c2        529
    x[10]     OBJ       -771
    x[11]     c1        477
    x[11]     c2        458
    x[11]     OBJ       -953
    x[12]     c1        355
    x[12]     c2        987
    x[12]     OBJ       -355
    x[13]     c1        956
    x[13]     c2        201
    x[13]     OBJ       -56
    x[14]     c1        270
    x[14]     c2        17
    x[14]     OBJ       -397
    x[15]     c1        672
    x[15]     c2        383
    x[15]     OBJ       -229
RHS
    rhs       c1        4420
    rhs       c2        3011
RANGES
BOUNDS
 LO bounds    x[1]      0
 PL bounds    x[1]
 LO bounds    x[2]      0
 PL bounds    x[2]
 LO bounds    x[3]      0
 PL bounds    x[3]
 LO bounds    x[4]      0
 PL bounds    x[4]
 LO bounds    x[5]      0
 PL bounds    x[5]
 LO bounds    x[6]      0
 PL bounds    x[6]
 LO bounds    x[7]      0
 PL bounds    x[7]
 LO bounds    x[8]      0
 PL bounds    x[8]
 LO bounds    x[9]      0
 PL bounds    x[9]
 LO bounds    x[10]     0
 PL bounds    x[10]
 LO bounds    x[11]     0
 PL bounds    x[11]
 LO bounds    x[12]     0
 PL bounds    x[12]
 LO bounds    x[13]     0
 PL bounds    x[13]
 LO bounds    x[14]     0
 PL bounds    x[14]
 LO bounds    x[15]     0
 PL bounds    x[15]
ENDATA
